7629
1 1 1 1 0 1 1 0 1 1 1 0 1 1 0 1 1 1 1 1 
1 0 1 1 1 1 1 1 1 2 3 2 2 3 3 5 5 5 5 5 5 5 5 5 6 6 6 6 6 6 6 8 8 8 8 8 8 8 8 8 9 9 10 10 10 10 10 10 13 13 12 13 13 12 13 15 15 12 15 13 0 15 15 15 15 16 17 17 17 17 17 17 17 18 19 19 19 19 19 19 